SumColouring/JavaBacktracker/RandomInstances/32_0.60_2.col
c File: instances/32_0.60_2.col
c
c Description: Random graph of size 32 vertices and P(0.6) of edges between any two vertices.
p col 32 496
e 1 2
e 1 4
e 1 5
e 1 7
e 1 10
e 1 11
e 1 12
e 1 14
e 1 18
e 1 21
e 1 23
e 1 24
e 1 26
e 1 27
e 1 29
e 1 31
e 2 3
e 2 5
e 2 7
e 2 8
e 2 9
e 2 10
e 2 11
e 2 13
e 2 14
e 2 18
e 2 21
e 2 23
e 2 24
e 2 25
e 2 26
e 2 28
e 2 29
e 2 30
e 3 4
e 3 5
e 3 7
e 3 8
e 3 9
e 3 10
e 3 11
e 3 13
e 3 15
e 3 16
e 3 17
e 3 18
e 3 19
e 3 20
e 3 21
e 3 24
e 3 25
e 3 26
e 3 27
e 3 28
e 3 30
e 3 32
e 4 5
e 4 6
e 4 7
e 4 9
e 4 10
e 4 11
e 4 12
e 4 13
e 4 16
e 4 18
e 4 20
e 4 22
e 4 24
e 4 26
e 4 27
e 4 29
e 4 30
e 4 31
e 4 32
e 5 7
e 5 9
e 5 10
e 5 11
e 5 12
e 5 13
e 5 14
e 5 16
e 5 18
e 5 19
e 5 23
e 5 25
e 5 28
e 5 29
e 5 30
e 5 32
e 6 7
e 6 8
e 6 10
e 6 12
e 6 13
e 6 14
e 6 15
e 6 16
e 6 17
e 6 20
e 6 23
e 6 24
e 6 25
e 6 28
e 6 29
e 6 30
e 7 11
e 7 12
e 7 13
e 7 14
e 7 17
e 7 20
e 7 22
e 7 23
e 7 24
e 7 27
e 7 28
e 7 29
e 7 30
e 7 32
e 8 9
e 8 10
e 8 11
e 8 12
e 8 13
e 8 14
e 8 15
e 8 16
e 8 17
e 8 19
e 8 20
e 8 21
e 8 22
e 8 23
e 8 24
e 8 25
e 8 27
e 8 28
e 8 29
e 8 31
e 8 32
e 9 10
e 9 11
e 9 13
e 9 14
e 9 16
e 9 17
e 9 18
e 9 19
e 9 20
e 9 21
e 9 23
e 9 26
e 9 27
e 9 29
e 9 30
e 9 31
e 10 11
e 10 12
e 10 13
e 10 14
e 10 17
e 10 18
e 10 21
e 10 22
e 10 23
e 10 24
e 10 25
e 10 27
e 10 28
e 10 29
e 10 30
e 11 14
e 11 15
e 11 19
e 11 20
e 11 24
e 11 27
e 11 29
e 11 30
e 12 13
e 12 14
e 12 15
e 12 17
e 12 21
e 12 22
e 12 24
e 12 27
e 12 28
e 12 30
e 13 14
e 13 16
e 13 19
e 13 20
e 13 21
e 13 22
e 13 25
e 13 28
e 13 29
e 13 30
e 13 32
e 14 16
e 14 17
e 14 22
e 14 24
e 14 26
e 14 27
e 14 28
e 14 29
e 14 31
e 14 32
e 15 17
e 15 19
e 15 20
e 15 21
e 15 22
e 15 23
e 15 28
e 15 30
e 15 31
e 15 32
e 16 17
e 16 18
e 16 19
e 16 25
e 16 26
e 16 27
e 16 28
e 16 29
e 16 30
e 16 31
e 17 18
e 17 21
e 17 23
e 17 24
e 17 25
e 17 26
e 17 27
e 17 28
e 17 30
e 17 32
e 18 19
e 18 21
e 18 22
e 18 24
e 18 25
e 18 27
e 18 28
e 18 31
e 19 21
e 19 22
e 19 23
e 19 30
e 19 32
e 20 21
e 20 22
e 20 23
e 20 24
e 20 25
e 20 26
e 20 27
e 20 28
e 20 30
e 20 31
e 21 22
e 21 23
e 21 25
e 21 27
e 21 28
e 21 30
e 21 31
e 22 24
e 22 25
e 22 27
e 22 29
e 22 31
e 22 32
e 23 25
e 23 27
e 23 30
e 23 32
e 24 26
e 24 27
e 24 28
e 24 31
e 24 32
e 25 26
e 25 28
e 25 31
e 25 32
e 26 27
e 26 29
e 26 30
e 26 32
e 27 29
e 27 30
e 27 32
e 28 29
e 28 30
e 28 32
e 29 32
e 31 32